
%FILE DATA:	Soccer Computational Problem for MiniZinc Models	%
%AUTHOR:	Jack Wall	%
%CONTACT:  	116397063@umail.ucc.ie			%
%LAST UPDATE:	03/03/2020, 12:08:58						%
%DESCRIPTION: 	36 games played with 20 games left				%


n=8; %number of teams

%Games to play
games=[|5,7|4,7|5,1|6,3|2,5|3,5|2,7|8,1|5,2|3,2|1,4|6,1|3,7|6,4|4,3|1,2|2,3|3,4|4,8|1,7|];

%Initial points
iPoints=[13,17,11,5,12,11,10,16];

%POSITION CONSTRAINTS
% [|teamID, operator, position|...]
% operators index:
%  1 for =  operator
%  2 for >  operator
%  3 for >= operator
%  4 for <  operator
%  5 for <= operator
positionConstraints=[|2,3,1|3,5,2|];